\ LP format - for model browsing. Use MPS format to capture full model detail.
Minimize
  C68(1)
Subject To
 c0: B0(10) = 1
 c1: B1(9) + B2(11) = 1
 c2: B3(8) + B4(9) = 1
 c3: B5(11) + B6(9) = 1
 c4: B7(9) + B8(10) = 1
 c5: B9(9) = 1
 c6: B10(10) + B11(10) = 1
 c7: B12(10) = 1
 c8: B13(9) + B14(9) = 1
 c9: B15(10) + B16(10) = 1
 c10: B17(10) = 1
 c11: B18(9) + B19(9) = 1
 c12: - 1e+09 B0(10) + C48(10) <= 0
 c13: - 1e+09 B1(9) + C49(10) <= 0
 c14: - 1e+09 B2(11) + C50(12) <= 0
 c15: - 1e+09 B3(8) + C51(9) <= 0
 c16: - 1e+09 B4(9) + C52(11) <= 0
 c17: - 1e+09 B5(11) + C53(11) <= 0
 c18: - 1e+09 B6(9) + C54(9) <= 0
 c19: - 1e+09 B7(9) + C55(10) <= 0
 c20: - 1e+09 B8(10) + C56(12) <= 0
 c21: - 1e+09 B9(9) + C57(10) <= 0
 c22: - 1e+09 B10(10) + C58(10) <= 0
 c23: - 1e+09 B11(10) + C59(10) <= 0
 c24: - 1e+09 B12(10) + C60(11) <= 0
 c25: - 1e+09 B13(9) + C61(10) <= 0
 c26: - 1e+09 B14(9) + C62(10) <= 0
 c27: - 1e+09 B15(10) + C63(10) <= 0
 c28: - 1e+09 B16(10) + C64(10) <= 0
 c29: - 1e+09 B17(10) + C65(11) <= 0
 c30: - 1e+09 B18(9) + C66(10) <= 0
 c31: - 1e+09 B19(9) + C67(10) <= 0
 c32: - 147 B0(10) - C48(10) + C49(10) + C50(12) >= 0
 c33: - 140 B1(9) - 130 B2(11) - C49(10) - C50(12) + C51(9) + C52(11) >= 0
 c34: - 1.00000014e+09 B1(9) - 130 B2(11) - 1e+09 B3(8) - C49(10) - C50(12)
   + C51(9) + C52(11) >= -1.999999989e+09
 c35: - 214 B5(11) - 150 B6(9) - C53(11) - C54(9) + C55(10) + C56(12) >= 0
 c36: - 214 B5(11) - 1.00000015e+09 B6(9) - 1e+09 B7(9) - C53(11) - C54(9)
   + C55(10) + C56(12) >= -1.999999988e+09
 c37: - 87 B7(9) - 66 B8(10) - C55(10) - C56(12) + C57(10) >= 0
 c38: - 87 B10(10) - 62 B11(10) - C58(10) - C59(10) + C60(11) >= 0
 c39: - 180 B12(10) - C60(11) + C61(10) + C62(10) >= 0
 c40: - 87 B15(10) - 65 B16(10) - C63(10) - C64(10) + C65(11) >= 0
 c41: - 173 B17(10) - C65(11) + C66(10) + C67(10) >= 0
 c42: - 1e+09 B0(10) - 1e+09 B5(11) - 1e+09 B20(2) + C48(10) - C53(11)
   >= -2.99999977e+09
 c43: - 1e+09 B0(10) - 1e+09 B5(11) + 1e+09 B20(2) - C48(10) + C53(11)
   >= -1.999999842e+09
 c44: - 1e+09 B0(10) - 1e+09 B10(10) - 1e+09 B21(2) + C48(10) - C58(10)
   >= -2.999999899e+09
 c45: - 1e+09 B0(10) - 1e+09 B10(10) + 1e+09 B21(2) - C48(10) + C58(10)
   >= -1.999999839e+09
 c46: - 1e+09 B0(10) - 1e+09 B15(10) - 1e+09 B22(2) + C48(10) - C63(10)
   >= -2.999999897e+09
 c47: - 1e+09 B0(10) - 1e+09 B15(10) + 1e+09 B22(2) - C48(10) + C63(10)
   >= -1.999999841e+09
 c48: - 1e+09 B2(11) - 1e+09 B8(10) - 1e+09 B23(2) + C50(12) - C56(12)
   >= -2.999999921e+09
 c49: - 1e+09 B2(11) - 1e+09 B8(10) + 1e+09 B23(2) - C50(12) + C56(12)
   >= -1.999999858e+09
 c50: - 1e+09 B2(11) - 1e+09 B11(10) - 1e+09 B24(2) + C50(12) - C59(10)
   >= -2.999999923e+09
 c51: - 1e+09 B2(11) - 1e+09 B11(10) + 1e+09 B24(2) - C50(12) + C59(10)
   >= -1.999999858e+09
 c52: - 1e+09 B1(9) - 1e+09 B13(9) - 1e+09 B25(2) + C49(10) - C61(10)
   >= -2.999999797e+09
 c53: - 1e+09 B1(9) - 1e+09 B13(9) + 1e+09 B25(2) - C49(10) + C61(10)
   >= -1.999999845e+09
 c54: - 1e+09 B2(11) - 1e+09 B16(10) - 1e+09 B26(2) + C50(12) - C64(10)
   >= -2.999999921e+09
 c55: - 1e+09 B2(11) - 1e+09 B16(10) + 1e+09 B26(2) - C50(12) + C64(10)
   >= -1.999999856e+09
 c56: - 1e+09 B1(9) - 1e+09 B18(9) - 1e+09 B27(2) + C49(10) - C66(10)
   >= -2.999999843e+09
 c57: - 1e+09 B1(9) - 1e+09 B18(9) + 1e+09 B27(2) - C49(10) + C66(10)
   >= -1.999999848e+09
 c58: - 1e+09 B4(9) - 1e+09 B9(9) - 1e+09 B28(2) + C52(11) - C57(10)
   >= -2.99999981e+09
 c59: - 1e+09 B4(9) - 1e+09 B9(9) + 1e+09 B28(2) - C52(11) + C57(10)
   >= -1.999999827e+09
 c60: - 1e+09 B3(8) - 1e+09 B13(9) - 1e+09 B29(2) + C51(9) - C61(10)
   >= -2.999999794e+09
 c61: - 1e+09 B3(8) - 1e+09 B13(9) + 1e+09 B29(2) - C51(9) + C61(10)
   >= -1.999999837e+09
 c62: - 1e+09 B4(9) - 1e+09 B14(9) - 1e+09 B30(2) + C52(11) - C62(10)
   >= -2.999999887e+09
 c63: - 1e+09 B4(9) - 1e+09 B14(9) + 1e+09 B30(2) - C52(11) + C62(10)
   >= -1.999999825e+09
 c64: - 1e+09 B4(9) - 1e+09 B17(10) - 1e+09 B31(2) + C52(11) - C65(11)
   >= -2.999999814e+09
 c65: - 1e+09 B4(9) - 1e+09 B17(10) + 1e+09 B31(2) - C52(11) + C65(11)
   >= -1.999999826e+09
 c66: - 1e+09 B3(8) - 1e+09 B18(9) - 1e+09 B32(2) + C51(9) - C66(10)
   >= -2.999999842e+09
 c67: - 1e+09 B3(8) - 1e+09 B18(9) + 1e+09 B32(2) - C51(9) + C66(10)
   >= -1.999999837e+09
 c68: - 1e+09 B5(11) - 1e+09 B10(10) - 1e+09 B33(2) + C53(11) - C58(10)
   >= -2.9999999e+09
 c69: - 1e+09 B5(11) - 1e+09 B10(10) + 1e+09 B33(2) - C53(11) + C58(10)
   >= -1.999999773e+09
 c70: - 1e+09 B6(9) - 1e+09 B12(10) - 1e+09 B34(2) + C54(9) - C60(11)
   >= -2.999999807e+09
 c71: - 1e+09 B6(9) - 1e+09 B12(10) + 1e+09 B34(2) - C54(9) + C60(11)
   >= -1.999999836e+09
 c72: - 1e+09 B5(11) - 1e+09 B15(10) - 1e+09 B35(2) + C53(11) - C63(10)
   >= -2.999999899e+09
 c73: - 1e+09 B5(11) - 1e+09 B15(10) + 1e+09 B35(2) - C53(11) + C63(10)
   >= -1.999999772e+09
 c74: - 1e+09 B6(9) - 1e+09 B19(9) - 1e+09 B36(2) + C54(9) - C67(10)
   >= -2.999999854e+09
 c75: - 1e+09 B6(9) - 1e+09 B19(9) + 1e+09 B36(2) - C54(9) + C67(10)
   >= -1.999999838e+09
 c76: - 1e+09 B8(10) - 1e+09 B11(10) - 1e+09 B37(2) + C56(12) - C59(10)
   >= -2.999999925e+09
 c77: - 1e+09 B8(10) - 1e+09 B11(10) + 1e+09 B37(2) - C56(12) + C59(10)
   >= -1.999999922e+09
 c78: - 1e+09 B7(9) - 1e+09 B12(10) - 1e+09 B38(2) + C55(10) - C60(11)
   >= -2.999999806e+09
 c79: - 1e+09 B7(9) - 1e+09 B12(10) + 1e+09 B38(2) - C55(10) + C60(11)
   >= -1.999999899e+09
 c80: - 1e+09 B8(10) - 1e+09 B16(10) - 1e+09 B39(2) + C56(12) - C64(10)
   >= -2.999999924e+09
 c81: - 1e+09 B8(10) - 1e+09 B16(10) + 1e+09 B39(2) - C56(12) + C64(10)
   >= -1.999999921e+09
 c82: - 1e+09 B7(9) - 1e+09 B19(9) - 1e+09 B40(2) + C55(10) - C67(10)
   >= -2.999999851e+09
 c83: - 1e+09 B7(9) - 1e+09 B19(9) + 1e+09 B40(2) - C55(10) + C67(10)
   >= -1.999999901e+09
 c84: - 1e+09 B9(9) - 1e+09 B14(9) - 1e+09 B41(2) + C57(10) - C62(10)
   >= -2.999999889e+09
 c85: - 1e+09 B9(9) - 1e+09 B14(9) + 1e+09 B41(2) - C57(10) + C62(10)
   >= -1.99999981e+09
 c86: - 1e+09 B9(9) - 1e+09 B17(10) - 1e+09 B42(2) + C57(10) - C65(11)
   >= -2.999999814e+09
 c87: - 1e+09 B9(9) - 1e+09 B17(10) + 1e+09 B42(2) - C57(10) + C65(11)
   >= -1.99999981e+09
 c88: - 1e+09 B10(10) - 1e+09 B15(10) - 1e+09 B43(2) + C58(10) - C63(10)
   >= -2.9999999e+09
 c89: - 1e+09 B10(10) - 1e+09 B15(10) + 1e+09 B43(2) - C58(10) + C63(10)
   >= -1.999999903e+09
 c90: - 1e+09 B11(10) - 1e+09 B16(10) - 1e+09 B44(2) + C59(10) - C64(10)
   >= -2.999999923e+09
 c91: - 1e+09 B11(10) - 1e+09 B16(10) + 1e+09 B44(2) - C59(10) + C64(10)
   >= -1.999999926e+09
 c92: - 1e+09 B12(10) - 1e+09 B19(9) - 1e+09 B45(2) + C60(11) - C67(10)
   >= -2.999999852e+09
 c93: - 1e+09 B12(10) - 1e+09 B19(9) + 1e+09 B45(2) - C60(11) + C67(10)
   >= -1.999999808e+09
 c94: - 1e+09 B14(9) - 1e+09 B17(10) - 1e+09 B46(2) + C62(10) - C65(11)
   >= -2.999999815e+09
 c95: - 1e+09 B14(9) - 1e+09 B17(10) + 1e+09 B46(2) - C62(10) + C65(11)
   >= -1.99999989e+09
 c96: - 1e+09 B13(9) - 1e+09 B18(9) - 1e+09 B47(2) + C61(10) - C66(10)
   >= -2.999999841e+09
 c97: - 1e+09 B13(9) - 1e+09 B18(9) + 1e+09 B47(2) - C61(10) + C66(10)
   >= -1.999999795e+09
 c98: C48(10) >= 0
 c99: C49(10) >= 0
 c100: C50(12) >= 0
 c101: C51(9) >= 0
 c102: C52(11) >= 0
 c103: C53(11) >= 0
 c104: C54(9) >= 0
 c105: C55(10) >= 0
 c106: C56(12) >= 0
 c107: C57(10) >= 0
 c108: C58(10) >= 0
 c109: C59(10) >= 0
 c110: C60(11) >= 0
 c111: C61(10) >= 0
 c112: C62(10) >= 0
 c113: C63(10) >= 0
 c114: C64(10) >= 0
 c115: C65(11) >= 0
 c116: C66(10) >= 0
 c117: C67(10) >= 0
 c118: - 147 B0(10) - 140 B1(9) - 130 B2(11) - 150 B3(8) - 160 B4(9)
   - 214 B5(11) - 150 B6(9) - 87 B7(9) - 66 B8(10) - 178 B9(9) - 87 B10(10)
   - 62 B11(10) - 180 B12(10) - 190 B13(9) - 100 B14(9) - 87 B15(10)
   - 65 B16(10) - 173 B17(10) - 145 B18(9) - 136 B19(9) - C48(10) - C49(10)
   - C50(12) - C51(9) - C52(11) - C53(11) - C54(9) - C55(10) - C56(12)
   - C57(10) - C58(10) - C59(10) - C60(11) - C61(10) - C62(10) - C63(10)
   - C64(10) - C65(11) - C66(10) - C67(10) + C68(1) = 0
Bounds
Binaries
 B0(10) B1(9) B2(11) B3(8) B4(9) B5(11) B6(9) B7(9) B8(10) B9(9) B10(10)
 B11(10) B12(10) B13(9) B14(9) B15(10) B16(10) B17(10) B18(9) B19(9) B20(2)
 B21(2) B22(2) B23(2) B24(2) B25(2) B26(2) B27(2) B28(2) B29(2) B30(2)
 B31(2) B32(2) B33(2) B34(2) B35(2) B36(2) B37(2) B38(2) B39(2) B40(2)
 B41(2) B42(2) B43(2) B44(2) B45(2) B46(2) B47(2)
End
